p tw 47 102
1 42
1 43
1 8
1 5
2 26
2 39
2 10
2 21
3 4
3 9
3 6
3 14
4 17
4 6
5 42
5 39
5 23
6 35
7 19
7 47
7 40
7 33
8 43
8 35
8 18
9 11
9 14
9 27
10 42
10 26
10 12
11 46
11 24
11 27
12 42
12 44
12 20
13 22
13 37
13 16
13 36
14 30
14 35
15 45
15 28
15 19
15 16
16 37
16 28
17 29
17 34
17 18
18 35
18 34
19 45
19 46
19 40
19 20
20 46
20 44
21 37
21 28
21 39
22 36
22 31
22 23
23 39
23 31
24 46
24 38
24 25
25 38
25 32
25 41
26 27
26 28
27 28
28 37
29 30
29 31
30 35
30 31
32 41
32 33
32 34
33 47
33 34
34 41
35 41
36 37
36 40
37 40
38 39
38 40
39 44
39 40
42 43
42 44
43 44
45 46
45 47
46 47
